StudentsNr = 10;
InstructorsNr = 55;
DaysNr = 1;
SlotsPerDay = 60;
AvailabilitySlotsLenght = 6;
RoomNr = 2;
ProgrammNr = 2;
DegreeNr = 2;
RolesNr = 0;
CoursesNr = 5;
InstructorsProgramm = [{1, 2}, {1}, {2}, {1, 2}, {1}, {1}, {2}, {2}, {1}, {2}, {2}, {2}, {1, 2}, {1, 2}, {1, 2}, {2}, {1}, {2}, {1}, {1}, {2}, {2}, {2}, {1, 2}, {1, 2}, {2}, {2}, {1}, {1}, {2}, {1}, {1}, {2}, {2}, {2}, {1, 2}, {2}, {1}, {1}, {1}, {2}, {1}, {1, 2}, {2}, {1}, {2}, {2}, {1}, {1}, {1}, {1}, {1}, {1}, {2}, {2}];
InstructorRolesPerProgramm = array2d(1..ProgrammNr,{},[]);
InstructorsAvailability = [|1, 1, 1, 1, 1, 1, 1, 1, 0, 1, |1, 1, 1, 0, 0, 1, 1, 1, 1, 1, |0, 1, 1, 0, 1, 0, 0, 1, 1, 0, |0, 1, 1, 1, 1, 0, 1, 1, 1, 1, |0, 0, 1, 1, 1, 1, 1, 1, 1, 1, |0, 1, 1, 1, 0, 0, 0, 1, 1, 0, |1, 1, 1, 1, 1, 1, 1, 0, 0, 0, |0, 0, 1, 1, 1, 1, 1, 1, 1, 1, |1, 1, 1, 1, 1, 1, 0, 1, 1, 1, |0, 0, 1, 1, 1, 0, 1, 1, 1, 1, |0, 1, 1, 0, 1, 1, 1, 1, 1, 1, |0, 0, 1, 1, 1, 1, 1, 0, 0, 1, |0, 0, 1, 1, 1, 1, 1, 1, 0, 0, |0, 1, 1, 1, 1, 1, 1, 1, 1, 1, |0, 1, 1, 1, 1, 1, 1, 1, 1, 1, |0, 1, 1, 1, 1, 1, 1, 1, 1, 1, |1, 1, 1, 1, 1, 1, 1, 1, 1, 1, |1, 1, 1, 1, 1, 1, 1, 1, 1, 0, |0, 0, 0, 1, 1, 1, 1, 1, 1, 1, |1, 1, 1, 0, 0, 1, 1, 1, 1, 1, |0, 1, 1, 1, 1, 1, 1, 1, 1, 1, |0, 0, 1, 0, 0, 1, 1, 1, 1, 1, |0, 0, 1, 1, 1, 1, 1, 1, 1, 1, |1, 1, 0, 0, 0, 0, 1, 1, 1, 1, |0, 1, 1, 1, 1, 1, 1, 1, 1, 1, |1, 1, 0, 1, 1, 1, 1, 1, 1, 1, |0, 0, 0, 0, 1, 1, 1, 1, 0, 1, |1, 1, 0, 1, 1, 1, 1, 1, 1, 1, |0, 1, 1, 1, 1, 1, 1, 0, 1, 1, |0, 1, 1, 1, 1, 1, 1, 1, 1, 1, |0, 1, 1, 0, 1, 1, 1, 1, 0, 0, |1, 1, 1, 1, 1, 1, 1, 0, 0, 0, |1, 0, 1, 1, 0, 1, 1, 1, 1, 1, |1, 1, 1, 1, 1, 1, 1, 1, 0, 0, |0, 1, 1, 1, 1, 0, 0, 0, 1, 1, |1, 1, 1, 0, 1, 1, 0, 1, 1, 1, |0, 0, 1, 1, 1, 1, 1, 1, 1, 1, |0, 1, 0, 0, 0, 1, 1, 1, 0, 0, |1, 1, 1, 1, 0, 1, 1, 1, 0, 1, |0, 1, 1, 1, 0, 0, 0, 0, 0, 0, |1, 1, 0, 0, 0, 0, 0, 1, 0, 0, |1, 1, 1, 0, 0, 1, 1, 0, 1, 1, |1, 1, 1, 1, 1, 1, 1, 0, 0, 0, |1, 1, 0, 1, 1, 1, 1, 1, 0, 0, |0, 0, 1, 1, 1, 1, 1, 0, 1, 1, |0, 1, 1, 1, 1, 1, 1, 1, 1, 1, |1, 1, 1, 1, 1, 1, 0, 0, 0, 0, |0, 0, 0, 1, 1, 1, 1, 0, 1, 1, |1, 1, 0, 1, 1, 1, 1, 1, 1, 1, |0, 1, 0, 0, 1, 1, 1, 1, 1, 1, |1, 1, 1, 1, 1, 0, 1, 1, 1, 1, |1, 1, 0, 1, 1, 1, 1, 1, 0, 1, |1, 1, 1, 0, 1, 1, 1, 1, 1, 1, |1, 0, 1, 1, 0, 1, 1, 1, 1, 1, |0, 1, 1, 1, 1, 0, 1, 1, 1, 1|];
StudentsProgramm = [2, 1, 1, 2, 1, 2, 1, 2, 2, 2];
StudentsDegree = [2, 1, 2, 1, 2, 1, 2, 1, 1, 2];
StudentsSupervisorId = [30, 36, 36, 21, 39, 13, 6, 11, 10, 26];
StudentsCourseIds = [{1, 2, 3, 4, 5}, {4}, {1, 2, 3, 4, 5}, {5}, {1, 2, 3, 4, 5}, {2}, {1, 2, 3, 4, 5}, {4}, {2}, {1, 2, 3, 4, 5}];
StudentsAvailability = [|1, 1, 1, 1, 1, 1, 1, 0, 1, 1, |0, 0, 1, 1, 1, 1, 1, 1, 1, 1, |1, 1, 1, 1, 1, 1, 1, 1, 1, 0, |0, 0, 1, 1, 0, 1, 1, 1, 1, 1, |1, 1, 1, 1, 1, 1, 1, 1, 0, 0, |0, 0, 1, 1, 1, 1, 1, 1, 1, 1, |1, 1, 1, 1, 1, 1, 1, 1, 1, 1, |1, 1, 1, 1, 1, 1, 1, 1, 1, 1, |1, 1, 0, 0, 1, 1, 1, 1, 1, 1, |0, 0, 0, 1, 1, 1, 1, 1, 1, 1|];
TheoryticalMinCard = [5, 2, 5, 2, 5, 1, 5, 1, 2, 5];
CoursesInstructorIds = [{24, 28, 34, 37, 39}, {7, 8, 9, 11, 12, 13, 14, 15, 16, 17, 18, 25, 26, 27, 28, 33, 35, 37, 38, 42, 44, 45, 46, 47, 50, 52, 54}, {1, 2, 4, 7, 10, 11, 15, 16, 17, 19, 23, 24, 27, 28, 29, 30, 32, 34, 35, 36, 37, 38, 39, 41, 43, 45, 46, 48, 49, 50, 54}, {3, 4, 5, 6, 7, 9, 10, 11, 13, 14, 16, 17, 18, 20, 21, 24, 26, 27, 28, 29, 30, 31, 34, 38, 39, 41, 42, 46, 48, 50, 52, 54}, {1, 4, 5, 8, 14, 15, 16, 19, 20, 22, 24, 26, 27, 30, 32, 34, 36, 40, 41, 48, 52, 54}];
RolesDemands = [];
RolesContinuity = [];
ExamLen = [1, 2, 1, 2, 1, 2, 1, 2, 2, 1];
LunchTsMinLen = 0;
LunchStarts = [15..42];
SupervisorAvailable = 0;
OptimalLunchLenght = [1, 1];
OptimalStartTs = [0, 0];
OptimalFinishTs = [1, 60];
MinimizeRooms = 300;
RolesSoftContinuity = array2d(1..2,{},[]);
SameDegreeInRoom = 20;
Mergeability = 2;
